TOUR_SECTION
180
178
23
108
90
103
157
111
28
56
73
200
105
102
143
128
43
83
117
64
186
161
188
97
123
193
164
71
14
137
51
115
32
15
40
55
91
146
94
145
29
16
8
154
169
37
66
80
82
127
46
109
1
151
181
6
150
153
69
44
74
119
79
9
58
49
81
35
148
149
176
120
135
138
112
22
88
194
62
116
142
27
85
191
17
61
78
5
199
130
141
173
50
84
41
86
19
53
42
158
118
2
99
125
182
139
172
65
167
34
59
13
92
131
36
179
189
144
11
171
163
4
48
134
196
124
12
177
75
63
10
187
33
159
72
107
68
170
183
136
110
30
101
165
184
185
95
114
26
89
132
104
155
162
174
133
3
18
152
77
31
38
195
20
21
147
24
192
39
100
129
168
126
25
175
57
140
156
60
198
106
52
96
121
98
67
113
70
47
54
45
93
87
76
122
7
197
190
166
160
-1
EOF